33D32945 STP File, STP Format Version 1.0

SECTION Comments
Name "cube_n10_d2_s27"
Problem "Euclidean Steiner Tree Problem"
Remark "Generated with STPGenerator. 2 dimensions."
END

SECTION Graph
Nodes 10
END

SECTION Coordinates
DD 0 0.6598329719 0.1353963139
DD 1 0.1522402149 0.1232835241
DD 2 0.6977873504 0.4392972800
DD 3 0.7240747631 0.4406859998
DD 4 0.7210137708 0.2581046555
DD 5 0.7259597377 0.3388851464
DD 6 0.3019310251 0.3627231598
DD 7 0.2349354551 0.3703337798
DD 8 0.8618260598 0.5896025284
DD 9 0.1705039685 0.3206381841
END
